(set-option :print-success false)
(set-logic QF_UF)
(declare-sort x33 0)
(declare-sort x95 0)
(declare-fun x111 () x95)
(declare-fun x89 () x95)
(declare-fun x14 (x95 x95) x95)
(declare-fun x147 () x95)
(declare-fun x55 () x95)
(declare-fun x64 () x95)
(assert (not (and (and (and (= (x14 x89 x64) x111) (= x64 (x14 x147 x147))) (= x55 (x14 x147 x64))) (= (x14 x64 x147) x89))))
(assert (not (and (and (and (= x147 (x14 x111 x55)) (= x55 (x14 x64 x64))) (= x89 (x14 x64 x55))) (= (x14 x55 x64) x111))))
(assert (not (and (and (and (= x111 (x14 x55 x55)) (= (x14 x147 x111) x89)) (= (x14 x55 x111) x64)) (= x147 (x14 x111 x55)))))
(assert (not (and (= x111 (x14 x147 x55)) (and (and (= x147 (x14 x55 x55)) (= x64 (x14 x111 x147))) (= (x14 x55 x147) x89)))))
(assert (not (and (and (= (x14 x55 x64) x147) (and (= (x14 x55 x55) x64) (= (x14 x111 x64) x89))) (= (x14 x64 x55) x111))))
(assert (not (and (= x89 (x14 x55 x64)) (and (and (= x111 (x14 x89 x55)) (= (x14 x64 x64) x55)) (= (x14 x64 x55) x147)))))
(assert (not (and (and (and (= (x14 x147 x147) x111) (= (x14 x89 x111) x64)) (= x55 (x14 x147 x111))) (= x89 (x14 x111 x147)))))
(assert (and (not (= x147 x89)) (and (not (= x55 x89)) (and (not (= x147 x55)) (and (and (not (= x147 x64)) (and (and (not (= x89 x111)) (and (not (= x111 x147)) (and (not (= x111 x64)) (not (= x111 x55))))) (not (= x64 x55)))) (not (= x64 x89)))))))
(assert (not (and (and (= (x14 x64 x55) x147) (and (= (x14 x64 x64) x55) (= x89 (x14 x111 x55)))) (= (x14 x55 x64) x111))))
(assert (not (and (= x111 (x14 x89 x55)) (and (= (x14 x55 x89) x64) (and (= x89 (x14 x55 x55)) (= x147 (x14 x111 x89)))))))
(assert (not (and (and (= (x14 x147 x89) x64) (and (= x55 (x14 x111 x89)) (= (x14 x147 x147) x89))) (= (x14 x89 x147) x111))))
(assert (not (and (= (x14 x64 x111) x89) (and (and (= x55 (x14 x89 x64)) (= x64 (x14 x111 x111))) (= (x14 x111 x64) x147)))))
(assert (not (and (and (and (= (x14 x89 x55) x111) (= x55 (x14 x147 x147))) (= x64 (x14 x147 x55))) (= x89 (x14 x55 x147)))))
(assert (not (and (= (x14 x64 x89) x111) (and (= (x14 x89 x64) x55) (and (= (x14 x111 x64) x147) (= (x14 x89 x89) x64))))))
(assert (not (and (and (and (= x64 (x14 x147 x147)) (= (x14 x55 x64) x89)) (= x111 (x14 x147 x64))) (= x55 (x14 x64 x147)))))
(assert (not (and (and (and (= (x14 x89 x89) x55) (= x64 (x14 x147 x55))) (= x111 (x14 x89 x55))) (= x147 (x14 x55 x89)))))
(assert (not (and (= x89 (x14 x111 x64)) (and (and (= (x14 x64 x64) x111) (= x55 (x14 x89 x111))) (= x147 (x14 x64 x111))))))
(assert (not (and (= (x14 x89 x64) x147) (and (and (= (x14 x64 x64) x89) (= x55 (x14 x147 x89))) (= (x14 x64 x89) x111)))))
(assert (not (and (= (x14 x55 x64) x147) (and (and (= x55 (x14 x64 x64)) (= (x14 x147 x55) x89)) (= (x14 x64 x55) x111)))))
(assert (not (and (= (x14 x147 x89) x64) (and (= x111 (x14 x89 x147)) (and (= x55 (x14 x64 x147)) (= x147 (x14 x89 x89)))))))
(assert (not (and (= (x14 x147 x111) x55) (and (= (x14 x111 x147) x89) (and (= x64 (x14 x55 x147)) (= (x14 x111 x111) x147))))))
(assert (not (and (= x147 (x14 x89 x111)) (and (= x55 (x14 x111 x89)) (and (= (x14 x147 x89) x64) (= (x14 x111 x111) x89))))))
(assert (not (and (and (and (= (x14 x111 x64) x147) (= (x14 x55 x55) x64)) (= (x14 x55 x64) x89)) (= x111 (x14 x64 x55)))))
(assert (not (and (= x89 (x14 x64 x55)) (and (and (= (x14 x89 x64) x147) (= (x14 x55 x55) x64)) (= (x14 x55 x64) x111)))))
(assert (not (and (= x147 (x14 x111 x89)) (and (and (= x55 (x14 x147 x111)) (= x111 (x14 x89 x89))) (= x64 (x14 x89 x111))))))
(assert (not (and (= (x14 x55 x64) x89) (and (and (= (x14 x89 x55) x147) (= (x14 x64 x64) x55)) (= x111 (x14 x64 x55))))))
(assert (not (and (and (= (x14 x111 x89) x147) (and (= (x14 x111 x111) x89) (= x64 (x14 x55 x89)))) (= x55 (x14 x89 x111)))))
(assert (not (and (and (and (= x64 (x14 x147 x147)) (= (x14 x111 x64) x55)) (= x89 (x14 x147 x64))) (= (x14 x64 x147) x111))))
(assert (not (and (and (= (x14 x64 x147) x89) (and (= x147 (x14 x64 x64)) (= x111 (x14 x55 x147)))) (= (x14 x147 x64) x55))))
(assert (not (and (= x111 (x14 x147 x55)) (and (and (= (x14 x111 x147) x89) (= (x14 x55 x55) x147)) (= x64 (x14 x55 x147))))))
(assert (not (and (= x111 (x14 x89 x55)) (and (= x147 (x14 x55 x89)) (and (= x64 (x14 x111 x89)) (= x89 (x14 x55 x55)))))))
(assert (not (and (= x111 (x14 x55 x89)) (and (= x64 (x14 x89 x55)) (and (= (x14 x111 x55) x147) (= (x14 x89 x89) x55))))))
(assert (not (and (= (x14 x64 x55) x147) (and (= (x14 x55 x64) x111) (and (= x64 (x14 x55 x55)) (= (x14 x147 x64) x89))))))
(assert (not (and (and (= x89 (x14 x55 x147)) (and (= (x14 x55 x55) x147) (= (x14 x64 x147) x111))) (= x64 (x14 x147 x55)))))
(assert (let ((x18 (x14 x55 x64)) (x30 (x14 x147 x55)) (x137 (x14 x64 x55)) (x108 (x14 x147 x64)) (x45 (x14 x147 x89)) (x19 (x14 x111 x89)) (x4 (x14 x64 x89)) (x113 (x14 x55 x55)) (x96 (x14 x89 x111)) (x75 (x14 x55 x111)) (x69 (x14 x111 x147)) (x138 (x14 x55 x147)) (x81 (x14 x147 x147)) (x25 (x14 x89 x64)) (x71 (x14 x147 x111)) (x28 (x14 x89 x147)) (x117 (x14 x55 x89)) (x133 (x14 x111 x111)) (x82 (x14 x64 x111)) (x12 (x14 x64 x147)) (x101 (x14 x89 x55)) (x31 (x14 x111 x55)) (x58 (x14 x64 x64)) (x128 (x14 x111 x64)) (x23 (x14 x89 x89))) (and (and (and (and (and (and (and (and (or (or (or (= x133 x55) (or (= x133 x64) (= x133 x111))) (= x147 x133)) (= x133 x89)) (or (= x128 x89) (or (= x147 x128) (or (= x128 x55) (or (= x128 x111) (= x64 x128)))))) (or (or (or (= x31 x55) (or (= x31 x64) (= x111 x31))) (= x147 x31)) (= x89 x31))) (or (or (or (= x55 x69) (or (= x69 x111) (= x69 x64))) (= x69 x147)) (= x69 x89))) (or (= x19 x89) (or (or (= x55 x19) (or (= x64 x19) (= x111 x19))) (= x19 x147)))) (and (or (= x4 x89) (or (= x147 x4) (or (or (= x4 x64) (= x4 x111)) (= x55 x4)))) (and (and (or (or (= x147 x137) (or (= x55 x137) (or (= x137 x64) (= x111 x137)))) (= x89 x137)) (and (or (= x89 x58) (or (= x147 x58) (or (= x55 x58) (or (= x58 x111) (= x58 x64))))) (or (= x82 x89) (or (= x82 x147) (or (= x82 x55) (or (= x82 x111) (= x64 x82))))))) (or (or (= x147 x12) (or (= x55 x12) (or (= x64 x12) (= x111 x12)))) (= x12 x89))))) (and (or (or (or (= x55 x117) (or (= x111 x117) (= x117 x64))) (= x117 x147)) (= x89 x117)) (and (or (= x138 x89) (or (= x147 x138) (or (= x138 x55) (or (= x64 x138) (= x111 x138))))) (and (or (or (= x147 x113) (or (or (= x113 x64) (= x111 x113)) (= x113 x55))) (= x113 x89)) (and (or (or (or (or (= x18 x64) (= x18 x111)) (= x55 x18)) (= x18 x147)) (= x89 x18)) (or (= x89 x75) (or (or (= x75 x55) (or (= x64 x75) (= x75 x111))) (= x147 x75)))))))) (and (and (and (and (or (or (= x147 x108) (or (= x55 x108) (or (= x108 x111) (= x64 x108)))) (= x108 x89)) (or (or (= x147 x71) (or (= x71 x55) (or (= x71 x111) (= x71 x64)))) (= x89 x71))) (or (= x30 x89) (or (= x30 x147) (or (or (= x30 x64) (= x111 x30)) (= x55 x30))))) (or (= x81 x89) (or (or (or (= x81 x64) (= x81 x111)) (= x55 x81)) (= x81 x147)))) (or (= x45 x89) (or (or (= x55 x45) (or (= x45 x111) (= x64 x45))) (= x147 x45))))) (and (and (and (or (or (or (= x55 x101) (or (= x64 x101) (= x111 x101))) (= x147 x101)) (= x89 x101)) (and (or (or (= x147 x96) (or (= x96 x55) (or (= x96 x111) (= x96 x64)))) (= x89 x96)) (or (or (= x147 x25) (or (or (= x25 x111) (= x64 x25)) (= x55 x25))) (= x89 x25)))) (or (= x28 x89) (or (= x147 x28) (or (= x28 x55) (or (= x64 x28) (= x111 x28)))))) (or (= x23 x89) (or (or (or (= x64 x23) (= x23 x111)) (= x23 x55)) (= x147 x23)))))))
(assert (not (and (and (= (x14 x147 x55) x111) (and (= (x14 x147 x147) x55) (= x89 (x14 x64 x55)))) (= x64 (x14 x55 x147)))))
(assert (not (and (= (x14 x147 x64) x89) (and (and (= x147 (x14 x64 x64)) (= (x14 x89 x147) x55)) (= x111 (x14 x64 x147))))))
(assert (not (and (and (= x111 (x14 x64 x89)) (and (= (x14 x55 x89) x147) (= (x14 x64 x64) x89))) (= x55 (x14 x89 x64)))))
(assert (not (and (= (x14 x55 x111) x147) (and (= x89 (x14 x111 x55)) (and (= x55 (x14 x111 x111)) (= x64 (x14 x147 x55)))))))
(assert (not (and (= x64 (x14 x111 x147)) (and (= (x14 x147 x111) x89) (and (= x55 (x14 x64 x111)) (= (x14 x147 x147) x111))))))
(assert (not (and (= (x14 x55 x89) x147) (and (= (x14 x89 x55) x64) (and (= (x14 x89 x89) x55) (= x111 (x14 x147 x55)))))))
(assert (not (and (and (and (= x64 (x14 x55 x147)) (= (x14 x89 x89) x147)) (= x111 (x14 x89 x147))) (= x55 (x14 x147 x89)))))
(assert (not (and (= (x14 x89 x64) x55) (and (= x147 (x14 x64 x89)) (and (= (x14 x64 x64) x89) (= x111 (x14 x55 x89)))))))
(assert (not (and (and (= (x14 x89 x64) x55) (and (= x111 (x14 x147 x64)) (= (x14 x89 x89) x64))) (= x147 (x14 x64 x89)))))
(assert (and (or (or (= (x14 x147 (x14 x89 x147)) x89) (or (= (x14 x55 (x14 x89 x55)) x89) (or (= (x14 x64 (x14 x89 x64)) x89) (= (x14 x111 (x14 x89 x111)) x89)))) (= (x14 x89 (x14 x89 x89)) x89)) (and (or (or (or (= (x14 x55 (x14 x147 x55)) x147) (or (= (x14 x64 (x14 x147 x64)) x147) (= x147 (x14 x111 (x14 x147 x111))))) (= x147 (x14 x147 (x14 x147 x147)))) (= (x14 x89 (x14 x147 x89)) x147)) (and (or (or (or (or (= (x14 x111 (x14 x55 x111)) x55) (= x55 (x14 x64 (x14 x55 x64)))) (= (x14 x55 (x14 x55 x55)) x55)) (= x55 (x14 x147 (x14 x55 x147)))) (= (x14 x89 (x14 x55 x89)) x55)) (and (or (= (x14 x89 (x14 x64 x89)) x64) (or (= (x14 x147 (x14 x64 x147)) x64) (or (= (x14 x55 (x14 x64 x55)) x64) (or (= (x14 x64 (x14 x64 x64)) x64) (= x64 (x14 x111 (x14 x64 x111))))))) (or (or (or (= (x14 x55 (x14 x111 x55)) x111) (or (= (x14 x111 (x14 x111 x111)) x111) (= (x14 x64 (x14 x111 x64)) x111))) (= x111 (x14 x147 (x14 x111 x147)))) (= x111 (x14 x89 (x14 x111 x89)))))))))
(assert (not (and (= x111 (x14 x147 x64)) (and (and (= x89 (x14 x111 x147)) (= x147 (x14 x64 x64))) (= x55 (x14 x64 x147))))))
(assert (not (and (and (= (x14 x89 x55) x147) (and (= (x14 x64 x55) x111) (= x55 (x14 x89 x89)))) (= x64 (x14 x55 x89)))))
(assert (and (and (and (and (or (or (or (or (= (x14 x64 (x14 x64 x111)) x111) (= x64 (x14 x64 (x14 x64 x64)))) (= (x14 x64 (x14 x64 x55)) x55)) (= (x14 x64 (x14 x64 x147)) x147)) (= x89 (x14 x64 (x14 x64 x89)))) (or (or (or (or (= (x14 x111 (x14 x111 x111)) x111) (= x64 (x14 x111 (x14 x111 x64)))) (= x55 (x14 x111 (x14 x111 x55)))) (= x147 (x14 x111 (x14 x111 x147)))) (= (x14 x111 (x14 x111 x89)) x89))) (or (or (or (= (x14 x55 (x14 x55 x55)) x55) (or (= (x14 x55 (x14 x55 x111)) x111) (= x64 (x14 x55 (x14 x55 x64))))) (= (x14 x55 (x14 x55 x147)) x147)) (= (x14 x55 (x14 x55 x89)) x89))) (or (or (= x147 (x14 x147 (x14 x147 x147))) (or (= (x14 x147 (x14 x147 x55)) x55) (or (= (x14 x147 (x14 x147 x64)) x64) (= x111 (x14 x147 (x14 x147 x111)))))) (= (x14 x147 (x14 x147 x89)) x89))) (or (or (or (= x55 (x14 x89 (x14 x89 x55))) (or (= x111 (x14 x89 (x14 x89 x111))) (= (x14 x89 (x14 x89 x64)) x64))) (= (x14 x89 (x14 x89 x147)) x147)) (= (x14 x89 (x14 x89 x89)) x89))))
(assert (not (and (and (= x55 (x14 x64 x111)) (and (= x147 (x14 x89 x111)) (= (x14 x64 x64) x111))) (= (x14 x111 x64) x89))))
(assert (not (and (and (and (= x64 (x14 x89 x55)) (= (x14 x111 x111) x55)) (= (x14 x111 x55) x147)) (= (x14 x55 x111) x89))))
(assert (let ((x133 (x14 x111 x111)) (x19 (x14 x89 x89)) (x128 (x14 x64 x64)) (x31 (x14 x55 x55)) (x69 (x14 x147 x147))) (and (and (or (= x19 x147) (or (or (or (= x147 x133) (= x147 x128)) (= x31 x147)) (= x147 x69))) (and (or (= x55 x19) (or (or (= x31 x55) (or (= x128 x55) (= x133 x55))) (= x69 x55))) (and (or (= x19 x64) (or (= x64 x69) (or (or (= x128 x64) (= x64 x133)) (= x31 x64)))) (or (or (or (or (= x111 x133) (= x128 x111)) (= x111 x31)) (= x111 x69)) (= x111 x19))))) (or (or (= x69 x89) (or (= x89 x31) (or (= x89 x128) (= x133 x89)))) (= x89 x19)))))
(assert (not (and (= x89 (x14 x64 x147)) (and (= (x14 x147 x64) x111) (and (= x55 (x14 x89 x64)) (= x64 (x14 x147 x147)))))))
(assert (not (and (= x147 (x14 x89 x55)) (and (= (x14 x55 x89) x111) (and (= (x14 x55 x55) x89) (= x64 (x14 x147 x89)))))))
(assert (not (and (= x89 (x14 x147 x55)) (and (= (x14 x55 x147) x111) (and (= (x14 x89 x147) x64) (= x147 (x14 x55 x55)))))))
(assert (not (and (and (= x55 (x14 x89 x147)) (and (= x147 (x14 x89 x89)) (= x64 (x14 x111 x147)))) (= x111 (x14 x147 x89)))))
(assert (not (and (and (and (= (x14 x64 x147) x111) (= x147 (x14 x89 x89))) (= x55 (x14 x89 x147))) (= (x14 x147 x89) x64))))
(assert (not (and (= x64 (x14 x55 x111)) (and (and (= (x14 x64 x55) x89) (= (x14 x111 x111) x55)) (= x147 (x14 x111 x55))))))
(assert (not (and (and (= x111 (x14 x147 x89)) (and (= x55 (x14 x64 x89)) (= x89 (x14 x147 x147)))) (= (x14 x89 x147) x64))))
(assert (not (and (and (= (x14 x89 x64) x147) (and (= (x14 x111 x64) x55) (= x64 (x14 x89 x89)))) (= (x14 x64 x89) x111))))
(assert (not (and (= (x14 x147 x89) x111) (and (and (= (x14 x89 x89) x147) (= x55 (x14 x111 x147))) (= x64 (x14 x89 x147))))))
(assert (not (and (= (x14 x147 x111) x55) (and (= x64 (x14 x111 x147)) (and (= x147 (x14 x111 x111)) (= (x14 x55 x147) x89))))))
(assert (not (and (= (x14 x111 x55) x89) (and (and (= x111 (x14 x55 x55)) (= (x14 x89 x111) x64)) (= (x14 x55 x111) x147)))))
(assert (not (and (and (and (= x89 (x14 x147 x147)) (= (x14 x55 x89) x111)) (= (x14 x147 x89) x64)) (= (x14 x89 x147) x55))))
(assert (not (and (and (and (= (x14 x64 x89) x147) (= (x14 x111 x111) x89)) (= x55 (x14 x111 x89))) (= (x14 x89 x111) x64))))
(assert (not (and (and (and (= (x14 x111 x111) x55) (= x147 (x14 x89 x55))) (= (x14 x111 x55) x64)) (= (x14 x55 x111) x89))))
(assert (not (and (= (x14 x64 x147) x111) (and (= (x14 x147 x64) x55) (and (= x89 (x14 x111 x64)) (= (x14 x147 x147) x64))))))
(assert (let ((x96 (x14 x55 x89)) (x75 (x14 x147 x111)) (x12 (x14 x55 x55)) (x28 (x14 x89 x147)) (x19 (x14 x111 x55)) (x113 (x14 x147 x64)) (x69 (x14 x64 x64)) (x108 (x14 x111 x89)) (x71 (x14 x147 x147)) (x18 (x14 x64 x147)) (x58 (x14 x64 x55)) (x25 (x14 x89 x55)) (x31 (x14 x64 x111)) (x133 (x14 x111 x111)) (x4 (x14 x111 x147)) (x45 (x14 x89 x64)) (x117 (x14 x147 x55)) (x81 (x14 x64 x89)) (x137 (x14 x55 x64)) (x128 (x14 x111 x64)) (x23 (x14 x89 x89)) (x138 (x14 x55 x147)) (x82 (x14 x55 x111)) (x101 (x14 x147 x89)) (x30 (x14 x89 x111))) (or (or (or (or (not (= x96 x25)) (or (not (= x45 x81)) (not (= x30 x108)))) (not (= x101 x28))) (not (= x23 x23))) (or (or (or (or (not (= x117 x138)) (or (not (= x12 x12)) (or (not (= x82 x19)) (not (= x58 x137))))) (not (= x96 x25))) (or (or (not (= x45 x81)) (or (or (not (= x58 x137)) (or (not (= x31 x128)) (not (= x69 x69)))) (not (= x113 x18)))) (or (not (= x30 x108)) (or (or (not (= x82 x19)) (or (not (= x133 x133)) (not (= x128 x31)))) (not (= x75 x4)))))) (or (or (or (not (= x117 x138)) (or (not (= x113 x18)) (not (= x4 x75)))) (not (= x71 x71))) (not (= x101 x28)))))))
(assert (not (and (= (x14 x55 x147) x89) (and (and (= x55 (x14 x147 x147)) (= x64 (x14 x89 x55))) (= (x14 x147 x55) x111)))))
(assert (not (and (and (= (x14 x89 x111) x55) (and (= x64 (x14 x147 x111)) (= x111 (x14 x89 x89)))) (= x147 (x14 x111 x89)))))
(assert (not (and (and (and (= x147 (x14 x111 x89)) (= (x14 x64 x64) x89)) (= x55 (x14 x64 x89))) (= x111 (x14 x89 x64)))))
(assert (not (and (and (= x111 (x14 x89 x64)) (and (= (x14 x55 x64) x147) (= (x14 x89 x89) x64))) (= x55 (x14 x64 x89)))))
(assert (not (and (= (x14 x111 x64) x55) (and (and (= (x14 x55 x111) x89) (= (x14 x64 x64) x111)) (= (x14 x64 x111) x147)))))
(assert (not (and (and (and (= (x14 x111 x111) x147) (= x64 (x14 x89 x147))) (= (x14 x111 x147) x55)) (= x89 (x14 x147 x111)))))
(assert (not (and (= x64 (x14 x111 x89)) (and (and (= x111 (x14 x89 x89)) (= x147 (x14 x64 x111))) (= (x14 x89 x111) x55)))))
(assert (not (and (and (= (x14 x89 x55) x147) (and (= x64 (x14 x111 x55)) (= x55 (x14 x89 x89)))) (= (x14 x55 x89) x111))))
(assert (not (and (= (x14 x64 x55) x89) (and (= x147 (x14 x55 x64)) (and (= (x14 x55 x55) x64) (= (x14 x89 x64) x111))))))
(assert (not (and (= x55 (x14 x89 x111)) (and (= (x14 x111 x89) x64) (and (= (x14 x55 x89) x147) (= x89 (x14 x111 x111)))))))
(assert (not (and (and (= (x14 x147 x89) x55) (and (= x89 (x14 x147 x147)) (= x111 (x14 x64 x89)))) (= x64 (x14 x89 x147)))))
(assert (not (and (= (x14 x64 x111) x89) (and (= (x14 x111 x64) x55) (and (= x64 (x14 x111 x111)) (= x147 (x14 x89 x64)))))))
(assert (not (and (and (= (x14 x147 x55) x89) (and (= (x14 x147 x147) x55) (= (x14 x64 x55) x111))) (= (x14 x55 x147) x64))))
(assert (not (and (and (and (= (x14 x64 x89) x55) (= (x14 x111 x111) x89)) (= x147 (x14 x111 x89))) (= (x14 x89 x111) x64))))
(assert (not (and (= (x14 x55 x64) x147) (and (and (= (x14 x64 x64) x55) (= x111 (x14 x147 x55))) (= (x14 x64 x55) x89)))))
(assert (not (and (= x64 (x14 x147 x55)) (and (= (x14 x55 x147) x111) (and (= x89 (x14 x64 x147)) (= (x14 x55 x55) x147))))))
(assert (not (and (and (= x111 (x14 x89 x64)) (and (= (x14 x89 x89) x64) (= x55 (x14 x147 x64)))) (= (x14 x64 x89) x147))))
(assert (not (and (= (x14 x111 x147) x55) (and (= (x14 x147 x111) x64) (and (= x111 (x14 x147 x147)) (= (x14 x55 x111) x89))))))
(assert (not (and (= (x14 x64 x111) x55) (and (= (x14 x111 x64) x89) (and (= x64 (x14 x111 x111)) (= x147 (x14 x55 x64)))))))
(assert (or (and (not (= (x14 x89 x89) x89)) (and (and (and (not (= (x14 x64 x89) x64)) (not (= (x14 x111 x89) x111))) (not (= (x14 x55 x89) x55))) (not (= (x14 x147 x89) x147)))) (or (and (and (not (= x147 (x14 x147 x147))) (and (and (not (= x111 (x14 x111 x147))) (not (= x64 (x14 x64 x147)))) (not (= x55 (x14 x55 x147))))) (not (= (x14 x89 x147) x89))) (or (and (and (and (not (= (x14 x55 x55) x55)) (and (not (= (x14 x64 x55) x64)) (not (= (x14 x111 x55) x111)))) (not (= (x14 x147 x55) x147))) (not (= (x14 x89 x55) x89))) (or (and (and (not (= x147 (x14 x147 x64))) (and (not (= x55 (x14 x55 x64))) (and (not (= (x14 x64 x64) x64)) (not (= x111 (x14 x111 x64)))))) (not (= x89 (x14 x89 x64)))) (and (and (and (and (not (= x111 (x14 x111 x111))) (not (= x64 (x14 x64 x111)))) (not (= x55 (x14 x55 x111)))) (not (= (x14 x147 x111) x147))) (not (= x89 (x14 x89 x111)))))))))
(assert (not (and (and (= (x14 x64 x147) x55) (and (= (x14 x89 x147) x111) (= x147 (x14 x64 x64)))) (= x89 (x14 x147 x64)))))
(assert (not (and (and (and (= x64 (x14 x89 x89)) (= x111 (x14 x55 x64))) (= (x14 x89 x64) x147)) (= x55 (x14 x64 x89)))))
(assert (not (and (= x111 (x14 x89 x64)) (and (= x147 (x14 x64 x89)) (and (= x89 (x14 x64 x64)) (= (x14 x111 x89) x55))))))
(assert (not (and (= (x14 x147 x89) x55) (and (= (x14 x89 x147) x64) (and (= (x14 x55 x147) x111) (= (x14 x89 x89) x147))))))
(assert (not (and (= x147 (x14 x55 x111)) (and (and (= (x14 x147 x55) x89) (= x55 (x14 x111 x111))) (= x64 (x14 x111 x55))))))
(assert (not (and (= x147 (x14 x111 x64)) (and (= x89 (x14 x64 x111)) (and (= (x14 x147 x111) x55) (= (x14 x64 x64) x111))))))
(assert (not (and (= x147 (x14 x89 x111)) (and (= (x14 x111 x89) x64) (and (= (x14 x111 x111) x89) (= x55 (x14 x147 x89)))))))
(assert (not (and (= x64 (x14 x89 x55)) (and (and (= x89 (x14 x55 x55)) (= (x14 x64 x89) x111)) (= x147 (x14 x55 x89))))))
(assert (not (and (= (x14 x55 x147) x111) (and (= x64 (x14 x147 x55)) (and (= (x14 x147 x147) x55) (= (x14 x111 x55) x89))))))
(assert (not (and (and (and (= (x14 x64 x64) x147) (= x55 (x14 x111 x147))) (= (x14 x64 x147) x89)) (= (x14 x147 x64) x111))))
(assert (let ((x101 (x14 x64 x147)) (x144 (x14 x55 x55)) (x45 (x14 x64 x64)) (x146 (x14 x89 x55)) (x137 (x14 x147 x111)) (x25 (x14 x64 x55)) (x2 (x14 x89 x64)) (x120 (x14 x147 x55)) (x151 (x14 x55 x64)) (x150 (x14 x147 x64)) (x108 (x14 x111 x89)) (x71 (x14 x111 x147)) (x51 (x14 x55 x89)) (x113 (x14 x111 x64)) (x82 (x14 x55 x111)) (x129 (x14 x55 x147)) (x21 (x14 x147 x147)) (x117 (x14 x111 x55)) (x28 (x14 x64 x89)) (x1 (x14 x89 x89)) (x8 (x14 x89 x147)) (x4 (x14 x89 x111)) (x38 (x14 x147 x89)) (x128 (x14 x111 x111)) (x69 (x14 x64 x111))) (let ((x98 (= x45 x55)) (x75 (= x128 x64)) (x157 (= x144 x89)) (x52 (= x64 x25)) (x54 (= x71 x111)) (x24 (= x89 x137)) (x36 (= x1 x55)) (x103 (= x89 x129)) (x49 (= x111 x1)) (x46 (= x2 x64)) (x27 (= x82 x55)) (x133 (= x111 x128)) (x136 (= x55 x38)) (x58 (= x137 x111)) (x127 (= x55 x69)) (x140 (= x147 x4)) (x19 (= x111 x82)) (x121 (= x117 x55)) (x97 (= x137 x55)) (x48 (= x117 x147)) (x80 (= x71 x55)) (x43 (= x147 x28)) (x143 (= x147 x8)) (x16 (= x64 x21)) (x62 (= x55 x113)) (x116 (= x128 x147)) (x92 (= x89 x150)) (x154 (= x51 x147)) (x67 (= x146 x64)) (x83 (= x89 x69)) (x124 (= x146 x111)) (x88 (= x2 x111)) (x77 (= x8 x64)) (x115 (= x144 x111)) (x56 (= x89 x101)) (x50 (= x1 x147)) (x130 (= x55 x144)) (x131 (= x147 x150)) (x114 (= x55 x4)) (x17 (= x51 x55)) (x102 (= x129 x147)) (x9 (= x137 x64)) (x57 (= x38 x64)) (x6 (= x146 x55)) (x153 (= x146 x89)) (x59 (= x64 x117)) (x29 (= x21 x147)) (x18 (= x113 x111)) (x106 (= x89 x1)) (x65 (= x151 x64)) (x15 (= x64 x101)) (x123 (= x89 x45)) (x112 (= x89 x8)) (x44 (= x129 x55)) (x10 (= x25 x147)) (x85 (= x89 x38)) (x37 (= x89 x113)) (x73 (= x89 x128)) (x132 (= x4 x89)) (x22 (= x51 x89)) (x40 (= x51 x111)) (x81 (= x111 x45)) (x141 (= x71 x64)) (x13 (= x64 x51)) (x20 (= x4 x64)) (x26 (= x150 x64)) (x30 (= x64 x69)) (x47 (= x147 x108)) (x12 (= x111 x4)) (x11 (= x38 x111)) (x32 (= x144 x147)) (x3 (= x147 x45)) (x139 (= x108 x111)) (x104 (= x120 x55)) (x86 (= x111 x25)) (x84 (= x129 x64)) (x105 (= x38 x147)) (x99 (= x111 x150)) (x145 (= x111 x28)) (x110 (= x89 x151)) (x78 (= x147 x101)) (x68 (= x55 x128)) (x41 (= x137 x147)) (x135 (= x89 x71)) (x148 (= x89 x21)) (x5 (= x55 x108)) (x107 (= x111 x117)) (x96 (= x64 x45)) (x90 (= x82 x147)) (x100 (= x151 x147)) (x93 (= x111 x21)) (x125 (= x8 x111)) (x60 (= x28 x89)) (x156 (= x55 x151)) (x79 (= x120 x64)) (x134 (= x129 x111)) (x74 (= x82 x89)) (x72 (= x55 x25)) (x61 (= x2 x55)) (x35 (= x146 x147)) (x39 (= x21 x55)) (x142 (= x147 x71)) (x63 (= x89 x25)) (x155 (= x120 x147)) (x94 (= x1 x64)) (x53 (= x8 x55)) (x122 (= x64 x28)) (x126 (= x64 x144)) (x119 (= x151 x111)) (x7 (= x55 x101)) (x138 (= x64 x113)) (x66 (= x55 x150)) (x149 (= x113 x147)) (x91 (= x108 x89)) (x109 (= x147 x2)) (x23 (= x82 x64)) (x31 (= x69 x111)) (x152 (= x111 x120)) (x34 (= x2 x89)) (x118 (= x147 x69)) (x70 (= x108 x64)) (x42 (= x89 x120)) (x158 (= x55 x28)) (x87 (= x111 x101)) (x76 (= x89 x117))) (and (or (or (or (and x85 (not x85)) (or (or (and x42 (not x136)) (or (and (not x11) x24) (and (not x57) x92))) (and x148 (not x105)))) (or (or (or (or (and (not x17) x157) (or (and x110 (not x13)) (and (not x40) x74))) (and (not x154) x103)) (and x22 (not x22))) (or (or (and x60 (not x60)) (or (or (and (not x158) x63) (or (and (not x145) x83) (and x123 (not x122)))) (and x56 (not x43)))) (or (or (or (or (and (not x70) x37) (and x73 (not x139))) (and (not x5) x76)) (and (not x47) x135)) (and (not x91) x91))))) (or (or (or (and x153 (not x36)) (or (and (not x49) x132) (and x34 (not x94)))) (and x112 (not x50))) (and (not x106) x106))) (and (or (or (and (not x112) x50) (or (and (not x143) x143) (or (or (and x140 (not x125)) (and (not x77) x109)) (and (not x53) x35)))) (or (or (or (or (or (or (or (and x3 (not x15)) (and x118 (not x87))) (and (not x7) x10)) (and x78 (not x78))) (and (not x56) x43)) (or (or (or (and (not x80) x48) (or (and (not x54) x116) (and (not x141) x149))) (and (not x142) x142)) (and x47 (not x135)))) (or (and (not x103) x154) (or (or (and (not x44) x32) (or (and x100 (not x84)) (and (not x134) x90))) (and x102 (not x102))))) (or (or (or (and (not x39) x155) (or (and x41 (not x93)) (and (not x16) x131))) (and x29 (not x29))) (and x105 (not x148))))) (and (or (or (and (not x153) x36) (or (and x53 (not x35)) (or (and x6 (not x6)) (or (and x61 (not x67)) (and x114 (not x124)))))) (or (or (and x136 (not x42)) (or (and (not x155) x39) (or (or (and (not x152) x97) (and (not x79) x66)) (and x104 (not x104))))) (or (or (or (and (not x32) x44) (or (and (not x130) x130) (or (and (not x126) x156) (and x27 (not x115))))) (and (not x157) x17)) (or (or (and x5 (not x76)) (or (or (or (and x68 (not x107)) (and x62 (not x59))) (and (not x121) x121)) (and (not x48) x80))) (or (and (not x63) x158) (or (or (and (not x72) x72) (or (and (not x86) x127) (and (not x52) x98))) (and (not x10) x7))))))) (and (or (or (or (or (or (and x122 (not x123)) (or (and x15 (not x3)) (or (and x52 (not x98)) (or (and (not x81) x30) (and x96 (not x96)))))) (or (and x70 (not x37)) (or (or (or (and x75 (not x18)) (and x138 (not x138))) (and (not x62) x59)) (and (not x149) x141)))) (or (or (or (or (and x65 (not x65)) (and (not x119) x23)) (and (not x156) x126)) (and x84 (not x100))) (and x13 (not x110)))) (or (and (not x92) x57) (or (or (and x79 (not x66)) (or (and (not x26) x26) (and x9 (not x99)))) (and x16 (not x131))))) (or (or (and (not x109) x77) (or (and x67 (not x61)) (or (and x46 (not x46)) (and (not x88) x20)))) (and x94 (not x34)))) (or (or (or (or (or (or (and x115 (not x27)) (or (and (not x19) x19) (and x119 (not x23)))) (and (not x90) x134)) (and x40 (not x74))) (or (or (and x145 (not x83)) (or (or (and x86 (not x127)) (or (and (not x31) x31) (and x81 (not x30)))) (and x87 (not x118)))) (or (and x139 (not x73)) (or (or (and (not x68) x107) (or (and (not x133) x133) (and x18 (not x75)))) (and (not x116) x54))))) (or (or (or (and (not x97) x152) (or (and (not x58) x58) (and (not x9) x99))) (and x93 (not x41))) (and (not x24) x11))) (or (and (not x132) x49) (or (or (or (and x88 (not x20)) (and x12 (not x12))) (and x124 (not x114))) (and x125 (not x140))))))))))))
(assert (not (and (and (= x147 (x14 x111 x64)) (and (= x89 (x14 x55 x64)) (= x64 (x14 x111 x111)))) (= (x14 x64 x111) x55))))
(assert (not (and (and (= (x14 x55 x64) x89) (and (= x111 (x14 x147 x64)) (= (x14 x55 x55) x64))) (= x147 (x14 x64 x55)))))
(assert (not (and (and (and (= (x14 x89 x147) x111) (= (x14 x55 x55) x147)) (= x64 (x14 x55 x147))) (= x89 (x14 x147 x55)))))
(assert (not (and (and (and (= (x14 x147 x64) x89) (= (x14 x111 x111) x64)) (= (x14 x111 x64) x55)) (= (x14 x64 x111) x147))))
(assert (not (and (= (x14 x111 x147) x55) (and (= (x14 x147 x111) x89) (and (= x111 (x14 x147 x147)) (= x64 (x14 x55 x111)))))))
(assert (not (and (and (= x89 (x14 x111 x147)) (and (= x55 (x14 x64 x147)) (= x147 (x14 x111 x111)))) (= (x14 x147 x111) x64))))
(assert (not (and (= x64 (x14 x89 x55)) (and (and (= x89 (x14 x55 x55)) (= x147 (x14 x64 x89))) (= x111 (x14 x55 x89))))))
(assert (not (and (= (x14 x147 x111) x89) (and (and (= x147 (x14 x111 x111)) (= x55 (x14 x89 x147))) (= (x14 x111 x147) x64)))))
(assert (not (and (and (= x64 (x14 x147 x111)) (and (= x111 (x14 x147 x147)) (= x55 (x14 x89 x111)))) (= x89 (x14 x111 x147)))))
(assert (not (and (and (= x55 (x14 x147 x111)) (and (= x89 (x14 x64 x111)) (= (x14 x147 x147) x111))) (= x64 (x14 x111 x147)))))
(assert (not (and (= x55 (x14 x64 x147)) (and (= x89 (x14 x147 x64)) (and (= (x14 x55 x64) x111) (= (x14 x147 x147) x64))))))
(assert (not (and (and (= (x14 x89 x111) x147) (and (= x111 (x14 x89 x89)) (= (x14 x55 x111) x64))) (= (x14 x111 x89) x55))))
(assert (not (and (= x147 (x14 x89 x64)) (and (and (= (x14 x64 x64) x89) (= (x14 x147 x89) x111)) (= (x14 x64 x89) x55)))))
(assert (not (and (= (x14 x111 x55) x147) (and (and (= x64 (x14 x147 x111)) (= x111 (x14 x55 x55))) (= (x14 x55 x111) x89)))))
(assert (not (and (and (and (= (x14 x64 x111) x89) (= (x14 x55 x55) x111)) (= (x14 x55 x111) x147)) (= x64 (x14 x111 x55)))))
(assert (not (and (= x89 (x14 x111 x55)) (and (and (= (x14 x55 x55) x111) (= (x14 x89 x111) x147)) (= (x14 x55 x111) x64)))))
(assert (not (and (and (and (= x55 (x14 x111 x111)) (= x147 (x14 x64 x55))) (= (x14 x111 x55) x89)) (= (x14 x55 x111) x64))))
(assert (not (and (= (x14 x111 x64) x147) (and (= (x14 x64 x111) x55) (and (= (x14 x64 x64) x111) (= (x14 x147 x111) x89))))))
(assert (not (and (= (x14 x111 x55) x64) (and (and (= x111 (x14 x55 x55)) (= (x14 x64 x111) x147)) (= x89 (x14 x55 x111))))))
(assert (not (and (and (= x111 (x14 x64 x147)) (and (= (x14 x55 x147) x89) (= x147 (x14 x64 x64)))) (= x55 (x14 x147 x64)))))
(assert (not (and (= (x14 x55 x147) x111) (and (= x89 (x14 x147 x55)) (and (= (x14 x147 x147) x55) (= (x14 x111 x55) x64))))))
(assert (not (and (and (= (x14 x89 x111) x64) (and (= (x14 x55 x111) x147) (= x111 (x14 x89 x89)))) (= x55 (x14 x111 x89)))))
(assert (not (and (and (= x55 (x14 x147 x89)) (and (= x64 (x14 x111 x89)) (= x89 (x14 x147 x147)))) (= (x14 x89 x147) x111))))
(assert (let ((x108 (x14 x64 x147)) (x82 (x14 x111 x64)) (x45 (x14 x89 x147)) (x28 (x14 x147 x89)) (x133 (x14 x111 x111)) (x18 (x14 x64 x55)) (x113 (x14 x55 x55)) (x81 (x14 x147 x147)) (x137 (x14 x55 x64)) (x19 (x14 x89 x111)) (x58 (x14 x64 x64)) (x25 (x14 x64 x89)) (x69 (x14 x147 x111)) (x101 (x14 x55 x89)) (x23 (x14 x89 x89)) (x31 (x14 x55 x111)) (x4 (x14 x89 x64)) (x30 (x14 x55 x147)) (x138 (x14 x147 x55)) (x71 (x14 x111 x147)) (x96 (x14 x111 x89)) (x117 (x14 x89 x55)) (x75 (x14 x111 x55)) (x12 (x14 x147 x64)) (x128 (x14 x64 x111))) (and (and (and (and (and (not (= x28 x138)) (and (not (= x138 x81)) (and (not (= x12 x28)) (and (not (= x12 x81)) (and (and (and (not (= x69 x81)) (and (not (= x138 x69)) (not (= x69 x12)))) (not (= x69 x28))) (not (= x138 x12))))))) (not (= x28 x81))) (and (and (and (not (= x25 x108)) (and (and (not (= x108 x18)) (and (not (= x58 x25)) (and (not (= x108 x58)) (and (not (= x18 x58)) (and (not (= x128 x25)) (and (and (not (= x128 x58)) (not (= x18 x128))) (not (= x128 x108)))))))) (not (= x18 x25)))) (and (not (= x96 x71)) (and (not (= x96 x75)) (and (and (not (= x82 x96)) (and (not (= x82 x71)) (and (and (and (not (= x133 x71)) (and (not (= x75 x133)) (not (= x133 x82)))) (not (= x96 x133))) (not (= x82 x75))))) (not (= x71 x75)))))) (and (not (= x30 x101)) (and (not (= x101 x113)) (and (and (and (and (not (= x113 x137)) (and (not (= x101 x31)) (and (and (not (= x31 x113)) (not (= x31 x137))) (not (= x30 x31))))) (not (= x137 x30))) (not (= x137 x101))) (not (= x113 x30))))))) (and (not (= x23 x45)) (and (and (and (not (= x23 x4)) (and (and (and (and (and (not (= x19 x4)) (not (= x117 x19))) (not (= x45 x19))) (not (= x19 x23))) (not (= x117 x4))) (not (= x4 x45)))) (not (= x45 x117))) (not (= x23 x117))))) (and (and (and (and (and (and (and (not (= x69 x31)) (and (not (= x128 x19)) (and (and (not (= x128 x31)) (and (and (not (= x69 x133)) (and (not (= x133 x128)) (not (= x133 x31)))) (not (= x133 x19)))) (not (= x128 x69))))) (not (= x31 x19))) (not (= x69 x19))) (and (and (and (and (not (= x4 x58)) (and (not (= x12 x58)) (and (not (= x137 x58)) (and (not (= x82 x4)) (and (not (= x82 x12)) (and (not (= x137 x82)) (not (= x58 x82)))))))) (not (= x137 x12))) (not (= x4 x137))) (not (= x12 x4)))) (and (not (= x138 x117)) (and (not (= x113 x117)) (and (and (and (and (not (= x18 x113)) (and (not (= x75 x117)) (and (and (not (= x75 x113)) (not (= x75 x18))) (not (= x138 x75))))) (not (= x138 x18))) (not (= x18 x117))) (not (= x113 x138)))))) (and (and (not (= x45 x30)) (and (and (not (= x108 x45)) (and (not (= x108 x81)) (and (not (= x30 x108)) (and (not (= x45 x71)) (and (and (not (= x30 x71)) (not (= x71 x108))) (not (= x81 x71))))))) (not (= x81 x30)))) (not (= x81 x45)))) (and (and (and (and (and (and (and (not (= x23 x96)) (and (and (not (= x101 x96)) (not (= x25 x96))) (not (= x96 x28)))) (not (= x101 x25))) (not (= x25 x28))) (not (= x23 x25))) (not (= x101 x28))) (not (= x101 x23))) (not (= x28 x23)))))))
(assert (not (and (= x147 (x14 x64 x111)) (and (and (= (x14 x147 x64) x55) (= (x14 x111 x111) x64)) (= x89 (x14 x111 x64))))))
(assert (not (and (and (= (x14 x147 x89) x111) (and (= x89 (x14 x147 x147)) (= x64 (x14 x55 x89)))) (= x55 (x14 x89 x147)))))
(assert (let ((x25 (x14 x64 x89)) (x151 (x14 x89 x64)) (x7 (x14 x89 x147)) (x122 (x14 x89 x89)) (x19 (x14 x111 x147)) (x82 (x14 x111 x89)) (x8 (x14 x55 x55)) (x12 (x14 x55 x111)) (x31 (x14 x111 x64)) (x45 (x14 x64 x55)) (x128 (x14 x111 x111)) (x96 (x14 x64 x147)) (x69 (x14 x111 x55)) (x4 (x14 x147 x111)) (x142 (x14 x147 x147)) (x118 (x14 x147 x89)) (x121 (x14 x147 x55)) (x127 (x14 x89 x55)) (x68 (x14 x55 x89)) (x137 (x14 x64 x111)) (x75 (x14 x89 x111)) (x119 (x14 x147 x64)) (x81 (x14 x64 x64)) (x1 (x14 x55 x147)) (x23 (x14 x55 x64))) (let ((x99 (= x147 x81)) (x35 (= x89 x1)) (x97 (= x147 x8)) (x26 (= x89 x31)) (x71 (= x31 x111)) (x132 (= x75 x89)) (x17 (= x25 x55)) (x88 (= x111 x45)) (x86 (= x12 x55)) (x61 (= x119 x111)) (x136 (= x25 x147)) (x60 (= x64 x122)) (x135 (= x111 x118)) (x103 (= x68 x55)) (x141 (= x4 x64)) (x130 (= x147 x45)) (x155 (= x147 x1)) (x92 (= x147 x127)) (x53 (= x89 x142)) (x154 (= x55 x118)) (x10 (= x64 x142)) (x59 (= x64 x8)) (x77 (= x89 x96)) (x148 (= x147 x68)) (x62 (= x45 x64)) (x15 (= x1 x64)) (x123 (= x64 x7)) (x158 (= x64 x25)) (x84 (= x96 x55)) (x28 (= x81 x64)) (x6 (= x19 x111)) (x5 (= x68 x111)) (x129 (= x55 x81)) (x16 (= x96 x147)) (x41 (= x119 x147)) (x42 (= x82 x147)) (x66 (= x23 x89)) (x67 (= x111 x121)) (x20 (= x69 x111)) (x145 (= x64 x127)) (x54 (= x1 x111)) (x43 (= x118 x64)) (x133 (= x111 x128)) (x83 (= x151 x64)) (x50 (= x118 x89)) (x63 (= x82 x64)) (x47 (= x111 x122)) (x21 (= x111 x12)) (x156 (= x147 x23)) (x49 (= x151 x89)) (x104 (= x45 x89)) (x56 (= x64 x68)) (x52 (= x55 x69)) (x114 (= x8 x89)) (x134 (= x55 x121)) (x44 (= x142 x55)) (x39 (= x147 x142)) (x117 (= x137 x111)) (x131 (= x147 x19)) (x32 (= x1 x55)) (x108 (= x81 x111)) (x139 (= x127 x111)) (x72 (= x45 x55)) (x91 (= x75 x64)) (x38 (= x23 x111)) (x144 (= x31 x55)) (x149 (= x111 x142)) (x90 (= x119 x55)) (x18 (= x128 x55)) (x36 (= x25 x89)) (x79 (= x69 x89)) (x85 (= x147 x122)) (x113 (= x147 x128)) (x100 (= x19 x55)) (x143 (= x111 x75)) (x102 (= x4 x147)) (x40 (= x55 x151)) (x37 (= x7 x111)) (x101 (= x64 x31)) (x116 (= x111 x96)) (x48 (= x119 x64)) (x93 (= x147 x121)) (x65 (= x55 x137)) (x78 (= x55 x4)) (x11 (= x151 x147)) (x125 (= x121 x89)) (x138 (= x89 x128)) (x73 (= x111 x151)) (x29 (= x89 x4)) (x13 (= x7 x55)) (x112 (= x89 x68)) (x24 (= x147 x75)) (x146 (= x64 x23)) (x157 (= x55 x82)) (x46 (= x12 x64)) (x2 (= x8 x111)) (x153 (= x82 x89)) (x107 (= x69 x64)) (x115 (= x12 x147)) (x58 (= x64 x128)) (x76 (= x25 x111)) (x126 (= x69 x147)) (x150 (= x89 x137)) (x70 (= x111 x82)) (x27 (= x8 x55)) (x140 (= x89 x119)) (x80 (= x64 x121)) (x87 (= x19 x64)) (x57 (= x7 x147)) (x106 (= x89 x122)) (x94 (= x89 x7)) (x22 (= x122 x55)) (x51 (= x147 x137)) (x74 (= x55 x75)) (x110 (= x55 x127)) (x105 (= x147 x118)) (x30 (= x64 x137)) (x98 (= x23 x55)) (x120 (= x81 x89)) (x34 (= x89 x127)) (x152 (= x12 x89)) (x124 (= x111 x4)) (x109 (= x19 x89)) (x3 (= x96 x64)) (x9 (= x31 x147))) (and (and (and (and (and (and (and (or (or (or x115 (or x51 x113)) x102) x24) (or (or (or x126 (or x9 x113)) x131) x42)) (and (and (or (or x100 (or (or x144 x18) x52)) x157) (or (or x78 (or (or x18 x65) x86)) x74)) (and (and (or x63 (or x87 (or (or x58 x101) x107))) (or (or (or (or x58 x30) x46) x141) x91)) (and (or (or x124 (or x21 (or x117 x133))) x143) (or (or x6 (or (or x71 x133) x20)) x70))))) (and (or (or (or x79 (or x138 x26)) x109) x153) (or (or x29 (or (or x150 x138) x152)) x132))) (and (and (or (or x77 (or x104 (or x120 x150))) x36) (or (or (or (or x26 x120) x66) x140) x49)) (and (and (and (or (or x90 (or (or x129 x144) x98)) x40) (or (or (or (or x129 x65) x72) x84) x17)) (and (and (or (or (or x38 (or x71 x108)) x61) x73) (or (or (or x88 (or x117 x108)) x116) x76)) (and (or x158 (or x3 (or x62 (or x28 x30)))) (or x83 (or (or x146 (or x28 x101)) x48))))) (and (or x136 (or x16 (or (or x51 x99) x130))) (or x11 (or (or (or x99 x9) x156) x41)))))) (and (and (or (or (or x114 (or x104 x79)) x125) x34) (or (or x35 (or (or x66 x152) x114)) x112)) (and (and (and (and (or (or x80 (or (or x107 x62) x59)) x145) (or (or (or x59 (or x46 x146)) x15) x56)) (and (or x139 (or (or (or x20 x88) x2) x67)) (or (or (or (or x38 x21) x2) x54) x5))) (and (or x103 (or (or (or x98 x86) x27) x32)) (or (or x134 (or (or x52 x72) x27)) x110))) (and (or (or (or (or x126 x130) x97) x93) x92) (or (or (or x97 (or x115 x156)) x155) x148))))) (and (and (or (or (or x125 (or x140 x29)) x53) x50) (or x94 (or x53 (or (or x109 x77) x35)))) (and (and (and (or x154 (or x44 (or x134 (or x90 x78)))) (or (or (or x32 (or x100 x84)) x44) x13)) (and (and (or x43 (or x10 (or (or x141 x48) x80))) (or (or x10 (or x15 (or x3 x87))) x123)) (and (or x135 (or x149 (or x67 (or x124 x61)))) (or x37 (or (or x54 (or x6 x116)) x149))))) (and (or (or (or x93 (or x41 x102)) x39) x105) (or x57 (or x39 (or x155 (or x131 x16)))))))) (and (and (or x106 (or (or (or x36 x153) x112) x50)) (or x106 (or x94 (or (or x132 x49) x34)))) (and (and (or (or (or (or x24 x11) x92) x57) x85) (or x85 (or x105 (or (or x42 x136) x148)))) (and (and (or x22 (or (or (or x17 x157) x103) x154)) (or (or (or (or x40 x74) x110) x13) x22)) (and (and (or x47 (or (or (or x70 x76) x5) x135)) (or x47 (or (or x139 (or x73 x143)) x37))) (and (or (or (or (or x158 x63) x56) x43) x60) (or (or x123 (or x145 (or x91 x83))) x60))))))))))
(assert (not (and (and (and (= x89 (x14 x64 x147)) (= (x14 x111 x111) x147)) (= (x14 x111 x147) x55)) (= x64 (x14 x147 x111)))))
(assert (not (and (= (x14 x55 x89) x64) (and (and (= x147 (x14 x64 x55)) (= (x14 x89 x89) x55)) (= x111 (x14 x89 x55))))))
(assert (not (and (and (= x64 (x14 x55 x89)) (and (= x89 (x14 x55 x55)) (= (x14 x147 x89) x111))) (= (x14 x89 x55) x147))))
(assert (not (and (= (x14 x111 x64) x55) (and (= (x14 x64 x111) x89) (and (= (x14 x64 x64) x111) (= x147 (x14 x55 x111)))))))
(assert (not (and (= x64 (x14 x111 x89)) (and (and (= x111 (x14 x89 x89)) (= (x14 x64 x111) x55)) (= x147 (x14 x89 x111))))))
(check-sat)
(exit)
